p cnf 22 7
a 1 0
e 2 3 4 0
a 5 0
e 6 7 8 0
a 9 0
e 10 11 0
a 12 13 14 0
e 15 0
a 16 0
e 17 0
a 18 0
e 19 0
a 20 21 22 0
-10 -5 0
7 6 -10 -3 0
1 -13 3 20 21 0
-2 13 18 22 -1 0
-8 6 -20 16 0
-11 -2 3 13 -17 0
6 7 14 0
